200
1000
495
494
493
490
489
488
487
486
485
485
483
481
479
477
475
474
473
471
471
470
469
464
463
459
455
452
445
445
445
444
444
442
439
438
436
435
435
435
435
433
429
429
428
428
422
422
421
418
417
417
417
411
410
407
405
404
401
400
398
398
398
397
395
393
391
389
389
385
384
378
377
376
375
375
375
373
373
369
368
362
362
359
358
354
353
352
352
351
349
346
344
342
341
337
337
336
335
335
334
334
334
333
330
330
330
330
328
326
325
324
324
320
318
317
317
316
316
316
315
312
308
306
304
302
299
296
295
292
292
290
284
282
278
276
276
271
270
270
270
269
268
263
261
259
258
257
254
252
252
250
247
246
244
244
243
243
242
242
233
232
231
230
228
224
223
223
220
220
213
213
212
209
209
206
204
201
200
199
197
195
195
194
194
193
192
189
188
188
186
184
182
179
179
175
173
173
172
171
169
168
